coords = array2d(1..38, 1..2, [400, 245, 884, 13, 914, 24, 139, 181, 87, 107,
    292, 830, 10, 983, 257, 777, 945, 578, 662, 140, 456, 631, 829,
    172, 8, 594, 586, 987, 534, 995, 75, 155, 853, 101, 817, 2, 699,
    217, 237, 824, 649, 910, 930, 405, 872, 943, 166, 755, 706, 470,
    499, 543, 812, 22, 734, 936, 108, 7, 903, 854, 510, 499, 363, 725,
    163, 523, 271, 761, 774, 157, 410, 547, 727, 615, 532, 427]);

n = 38;

